! NanoVNA Web complex sweep
! Processing: original sample grid, no browser smoothing
# Hz S RI R 50
10000000 -0.023510226 -0.99320832
10020000 -0.027977154 -0.99338432
10040000 -0.03208245 -0.99267456
10060000 -0.036770876 -0.992306816
10080000 -0.041191276 -0.9921296
10100000 -0.04584546 -0.991876992
10120000 -0.050292364 -0.9914832
10140000 -0.054782676 -0.991288128
10160000 -0.05948958 -0.990982848
10180000 -0.063939848 -0.990446144
10200000 -0.068558648 -0.990218944
10220000 -0.073307016 -0.98974752
10240000 -0.077861544 -0.9892464
10260000 -0.082543224 -0.98907744
10280000 -0.087263168 -0.98841376
10300000 -0.091812704 -0.987955776
10320000 -0.096635184 -0.987459392
10340000 -0.1014072 -0.986844864
10360000 -0.106036416 -0.986305536
10380000 -0.110967848 -0.98577088
10400000 -0.11572424 -0.985005376
10420000 -0.120865824 -0.984780544
10440000 -0.12522736 -0.983876736
10460000 -0.130095664 -0.982891392
10480000 -0.13490384 -0.982332224
10500000 -0.140030912 -0.981558976
10520000 -0.144724784 -0.980643072
10540000 -0.149706912 -0.979946304
10560000 -0.154785952 -0.979030848
10580000 -0.159637808 -0.978011328
10600000 -0.165177584 -0.977578048
10620000 -0.169787712 -0.9762208
10640000 -0.174610016 -0.975223936
10660000 -0.179772896 -0.97432896
10680000 -0.184880816 -0.973169728
10700000 -0.18991912 -0.972121664
10720000 -0.195144288 -0.971042304
10740000 -0.200261552 -0.969676352
10760000 -0.205323248 -0.96866528
10780000 -0.210653104 -0.967429184
10800000 -0.215743104 -0.966065152
10820000 -0.221037328 -0.964875648
10840000 -0.226334656 -0.963576704
10860000 -0.2315 -0.962134848
10880000 -0.236870544 -0.960867008
10900000 -0.242262688 -0.959251776
10920000 -0.247396064 -0.957724288
10940000 -0.252988544 -0.956379328
10960000 -0.258343488 -0.954621824
10980000 -0.263651872 -0.953070208
11000000 -0.269269856 -0.951437184
11020000 -0.274679232 -0.949627328
11040000 -0.280094944 -0.94792448
11060000 -0.285810272 -0.946215104
11080000 -0.291238144 -0.94420256
11100000 -0.296713856 -0.942438656
11120000 -0.3025008 -0.940550336
11140000 -0.307998464 -0.938414272
11160000 -0.313666496 -0.93653792
11180000 -0.319497312 -0.93433056
11200000 -0.325122528 -0.932218624
11220000 -0.330931296 -0.930278656
11240000 -0.336769472 -0.927700928
11260000 -0.342337312 -0.925487232
11280000 -0.348284512 -0.923168768
11300000 -0.354128512 -0.920617728
11320000 -0.359863072 -0.918132544
11340000 -0.36589824 -0.915753856
11360000 -0.371806368 -0.913004096
11380000 -0.37772016 -0.910422656
11400000 -0.383824448 -0.907769216
11420000 -0.389732736 -0.904779968
11440000 -0.395714336 -0.90200128
11460000 -0.402002784 -0.899095744
11480000 -0.407860384 -0.895942912
11500000 -0.414095456 -0.893047488
11520000 -0.420407744 -0.889883136
11540000 -0.426402144 -0.886554176
11560000 -0.432704224 -0.88348
11580000 -0.439039328 -0.8799104
11600000 -0.445100192 -0.876540672
11620000 -0.451649216 -0.873107648
11640000 -0.457988608 -0.869337088
11660000 -0.464223264 -0.865740608
11680000 -0.470773248 -0.861938624
11700000 -0.477119872 -0.8579376
11720000 -0.4835472 -0.854134656
11740000 -0.49020672 -0.85004032
11760000 -0.496633632 -0.845743488
11780000 -0.503372864 -0.841792896
11800000 -0.509701312 -0.837209664
11820000 -0.516460288 -0.832737536
11840000 -0.522987136 -0.828289664
11860000 -0.529863968 -0.823529408
11880000 -0.536299776 -0.818793024
11900000 -0.543268224 -0.814030592
11920000 -0.550035712 -0.808737664
11940000 -0.55668416 -0.80374592
11960000 -0.563600256 -0.798631296
11980000 -0.570487744 -0.792948544
12000000 -0.577235968 -0.78765568
12020000 -0.584332672 -0.781933696
12040000 -0.591113856 -0.776072128
12060000 -0.598058304 -0.770337408
12080000 -0.605211264 -0.764161984
12100000 -0.611936256 -0.757788672
12120000 -0.619085504 -0.75162752
12140000 -0.62618368 -0.744845568
12160000 -0.63312384 -0.738247808
12180000 -0.640255616 -0.731509184
12200000 -0.647347328 -0.724306944
12220000 -0.654208896 -0.71721664
12240000 -0.661636672 -0.709954816
12260000 -0.668694656 -0.702159936
12280000 -0.675700032 -0.694529344
12300000 -0.68301216 -0.686578304
12320000 -0.690043456 -0.67830432
12340000 -0.697099776 -0.670151104
12360000 -0.70430752 -0.661452608
12380000 -0.711367936 -0.652580608
12400000 -0.718390144 -0.64384064
12420000 -0.725559104 -0.634380736
12440000 -0.732451648 -0.624986176
12460000 -0.7395872 -0.615394624
12480000 -0.746649856 -0.60524224
12500000 -0.753418944 -0.595067456
12520000 -0.760524672 -0.584750912
12540000 -0.76735904 -0.573895104
12560000 -0.774057216 -0.563045696
12580000 -0.78098368 -0.551747712
12600000 -0.78764256 -0.540074112
12620000 -0.794194432 -0.528339104
12640000 -0.800881152 -0.516185472
12660000 -0.807168384 -0.503532224
12680000 -0.813566144 -0.491141088
12700000 -0.81993216 -0.47784704
12720000 -0.825892288 -0.46438896
12740000 -0.831990784 -0.45075776
12760000 -0.838015936 -0.43654528
12780000 -0.843456896 -0.422114624
12800000 -0.8492096 -0.407522208
12820000 -0.854551296 -0.392151424
12840000 -0.859738368 -0.376679584
12860000 -0.864910528 -0.36077632
12880000 -0.86976704 -0.344352416
12900000 -0.874311168 -0.327747456
12920000 -0.878928064 -0.310645568
12940000 -0.882963264 -0.293060736
12960000 -0.886872896 -0.275118464
12980000 -0.890604672 -0.256424688
13000000 -0.893529344 -0.237429216
13020000 -0.896759616 -0.217906128
13040000 -0.899018048 -0.19797808
13060000 -0.90087936 -0.177522176
13080000 -0.902480576 -0.156651936
13100000 -0.903515648 -0.135098944
13120000 -0.903787712 -0.113273256
13140000 -0.903973376 -0.091020576
13160000 -0.903165632 -0.068055744
13180000 -0.90172032 -0.044997776
13200000 -0.899764672 -0.02125419
13220000 -0.896783872 0.003030993
13240000 -0.89329376 0.027616124
13260000 -0.888981952 0.052554688
13280000 -0.883596032 0.077994176
13300000 -0.877383104 0.103496128
13320000 -0.870103296 0.129802736
13340000 -0.861728192 0.156204768
13360000 -0.852791552 0.182463296
13380000 -0.842359424 0.209484608
13400000 -0.8306416 0.236293584
13420000 -0.817688256 0.263465648
13440000 -0.804158336 0.290647008
13460000 -0.788532672 0.31768304
13480000 -0.771914112 0.344662112
13500000 -0.75346048 0.371365536
13520000 -0.734624256 0.398202432
13540000 -0.713712512 0.42427456
13560000 -0.691233344 0.450416608
13580000 -0.6671936 0.475173024
13600000 -0.642133376 0.500592576
13620000 -0.615233472 0.524541728
13640000 -0.586865088 0.547736576
13660000 -0.557054976 0.56947616
13680000 -0.525848256 0.591254144
13700000 -0.493131712 0.611388224
13720000 -0.458912416 0.62987232
13740000 -0.423686048 0.64686336
13760000 -0.386688192 0.663192768
13780000 -0.348602112 0.677297856
13800000 -0.309698464 0.68939072
13820000 -0.269513952 0.699853312
13840000 -0.229086528 0.708186368
13860000 -0.186778992 0.714866432
13880000 -0.14482592 0.719295872
13900000 -0.101834648 0.72101312
13920000 -0.058854368 0.72098144
13940000 -0.015910239 0.718225536
13960000 0.026640968 0.713738304
13980000 0.070251752 0.706593216
14000000 0.112636352 0.697043072
14020000 0.154082992 0.68510496
14040000 0.19487984 0.6721712
14060000 0.235557392 0.655360576
14080000 0.27444928 0.63734656
14100000 0.312154176 0.617486272
14120000 0.3487016 0.596088192
14140000 0.38400528 0.572093632
14160000 0.417446656 0.547092288
14180000 0.449215904 0.520612608
14200000 0.479539744 0.49325712
14220000 0.507891168 0.463663776
14240000 0.534217408 0.433313568
14260000 0.559126784 0.402941312
14280000 0.582090048 0.37096448
14300000 0.603018624 0.338817248
14320000 0.621977792 0.305901248
14340000 0.639130624 0.272786272
14360000 0.654667328 0.239588208
14380000 0.668583424 0.206223712
14400000 0.679916032 0.17260512
14420000 0.690085696 0.139575008
14440000 0.698950144 0.106515296
14460000 0.705944896 0.073532256
14480000 0.71106624 0.041486512
14500000 0.715047552 0.009439863
14520000 0.717830464 -0.021984374
14540000 0.719405696 -0.052767304
14560000 0.719547328 -0.082647248
14580000 0.718317824 -0.112473856
14600000 0.716494528 -0.141371744
14620000 0.713574272 -0.169897904
14640000 0.709448128 -0.197117072
14660000 0.704710528 -0.223819904
14680000 0.699161536 -0.250018768
14700000 0.692682368 -0.275502976
14720000 0.685731968 -0.299979584
14740000 0.677923968 -0.323983936
14760000 0.669638144 -0.34698864
14780000 0.660897664 -0.369453536
14800000 0.651329728 -0.391224224
14820000 0.641602304 -0.411985216
14840000 0.631351296 -0.432422464
14860000 0.62054752 -0.451925088
14880000 0.609578304 -0.470885504
14900000 0.598240256 -0.48903024
14920000 0.586658688 -0.506493504
14940000 0.57475712 -0.523323584
14960000 0.562400512 -0.539685056
14980000 0.54998816 -0.555022976
15000000 0.537551872 -0.570020352
15020000 0.52482528 -0.58445696
15040000 0.511874976 -0.598117184
15060000 0.498969856 -0.611261696
15080000 0.485713216 -0.623880384
15100000 0.472693312 -0.635882112
15120000 0.459267392 -0.647450112
15140000 0.445948864 -0.658446528
15160000 0.432651552 -0.668770624
15180000 0.419197088 -0.678904384
15200000 0.405706272 -0.688317952
15220000 0.392475104 -0.697264576
15240000 0.37902784 -0.705880896
15260000 0.365548448 -0.713928576
15280000 0.352253024 -0.721710144
15300000 0.338754592 -0.728887616
15320000 0.325363424 -0.735650944
15340000 0.312064384 -0.742201408
15360000 0.29873104 -0.748153536
15380000 0.285483296 -0.753756224
15400000 0.2723672 -0.7591168
15420000 0.259116352 -0.7639744
15440000 0.246164064 -0.76853824
15460000 0.233103488 -0.772785984
15480000 0.220111472 -0.776667456
15500000 0.207329728 -0.780172224
15520000 0.194373968 -0.783468352
15540000 0.181680976 -0.786307072
15560000 0.169035824 -0.78895488
15580000 0.15637584 -0.791256576
15600000 0.143737376 -0.793230976
15620000 0.131330368 -0.794959296
15640000 0.118821656 -0.796385216
15660000 0.106598536 -0.797435648
15680000 0.094276968 -0.798242112
15700000 0.082127704 -0.798726976
15720000 0.070005752 -0.79901888
15740000 0.057942232 -0.79900192
15760000 0.045913412 -0.798634432
15780000 0.034218068 -0.798110336
15800000 0.022303972 -0.797284928
15820000 0.010609756 -0.796038336
15840000 -0.001060179 -0.794717696
15860000 -0.012704179 -0.793037376
15880000 -0.024127478 -0.790948288
15900000 -0.035416192 -0.788809728
15920000 -0.046879088 -0.786240384
15940000 -0.058000972 -0.783526656
15960000 -0.06922992 -0.780389824
15980000 -0.08022552 -0.776967936
16000000 -0.09145468 -0.771709504
16020000 -0.101745088 -0.769437888
16040000 -0.11266092 -0.765032256
16060000 -0.12317728 -0.760753472
16080000 -0.133804576 -0.755783552
16100000 -0.14411488 -0.750628352
16120000 -0.154376512 -0.7453488
16140000 -0.164515584 -0.739426048
16160000 -0.174459136 -0.733396864
16180000 -0.184337984 -0.727052224
16200000 -0.194039632 -0.72022912
16220000 -0.203422512 -0.7132816
16240000 -0.21291608 -0.70594944
16260000 -0.222107824 -0.698022848
16280000 -0.23100832 -0.690069376
16300000 -0.239956384 -0.681546624
16320000 -0.248392352 -0.67287296
16340000 -0.256649408 -0.66354816
16360000 -0.264943504 -0.653971584
16380000 -0.272658752 -0.64388384
16400000 -0.280220736 -0.63362688
16420000 -0.287537984 -0.622770816
16440000 -0.29433728 -0.611619008
16460000 -0.300915904 -0.600030464
16480000 -0.307145184 -0.587905856
16500000 -0.312815264 -0.5755632
16520000 -0.31826224 -0.562675968
16540000 -0.323143648 -0.549367872
16560000 -0.327360864 -0.535684896
16580000 -0.331313632 -0.521554464
16600000 -0.33452576 -0.50695216
16620000 -0.337052096 -0.492142304
16640000 -0.33913808 -0.476694528
16660000 -0.340232448 -0.46094464
16680000 -0.340716256 -0.445044672
16700000 -0.340442656 -0.428510784
16720000 -0.33915504 -0.411831712
16740000 -0.337043936 -0.394901664
16760000 -0.334014432 -0.377595136
16780000 -0.329710304 -0.360271424
16800000 -0.324627296 -0.34285632
16820000 -0.318226016 -0.32513552
16840000 -0.310685696 -0.307690752
16860000 -0.302035872 -0.290301792
16880000 -0.291992 -0.272949792
16900000 -0.280685248 -0.256104832
16920000 -0.268125776 -0.239507216
16940000 -0.254152688 -0.223375152
16960000 -0.238811024 -0.208080416
16980000 -0.222264544 -0.193350112
17000000 -0.204265552 -0.179641824
17020000 -0.185101776 -0.166943872
17040000 -0.164699824 -0.155376416
17060000 -0.143142192 -0.145128736
17080000 -0.120566 -0.136387152
17100000 -0.097057856 -0.12916072
17120000 -0.072704472 -0.123640768
17140000 -0.047742004 -0.119872976
17160000 -0.022255974 -0.118014032
17180000 0.003623093 -0.118055968
17200000 0.0294967 -0.120069376
17220000 0.05541754 -0.124020328
17240000 0.08104216 -0.130034536
17260000 0.106234888 -0.137908544
17280000 0.130828072 -0.147694992
17300000 0.154604368 -0.159316416
17320000 0.177349744 -0.172733872
17340000 0.19901424 -0.187584336
17360000 0.219417312 -0.204065584
17380000 0.238461392 -0.22177224
17400000 0.255963744 -0.24061664
17420000 0.272130208 -0.26056808
17440000 0.286492576 -0.281216064
17460000 0.299371072 -0.302574144
17480000 0.3106208 -0.324542272
17500000 0.320290848 -0.346746976
17520000 0.328323456 -0.369131648
17540000 0.334881024 -0.391756
17560000 0.339923296 -0.414168544
17580000 0.34362096 -0.4364648
17600000 0.345945536 -0.458575264
17620000 0.346865856 -0.480188032
17640000 0.346746624 -0.50152112
17660000 0.345521376 -0.522367488
17680000 0.343140064 -0.542518528
17700000 0.34000368 -0.562210688
17720000 0.335698656 -0.581362432
17740000 0.330793824 -0.59973184
17760000 0.325258208 -0.617670464
17780000 0.3188736 -0.63472576
17800000 0.31204432 -0.6511952
17820000 0.304582752 -0.667028288
17840000 0.296713632 -0.682093952
17860000 0.28850656 -0.69666112
17880000 0.279737696 -0.710595328
17900000 0.270851808 -0.723725504
17920000 0.261706256 -0.736393408
17940000 0.252125824 -0.748456064
17960000 0.242555072 -0.75986784
17980000 0.232767952 -0.77092032
18000000 0.222838032 -0.781229632