! NanoVNA Web complex sweep
! Processing: original sample grid, no browser smoothing
# Hz S RI R 50
10000000 0.306669792 -0.923704448
10020000 0.290663648 -0.928821888
10040000 0.273603712 -0.933885888
10060000 0.256616688 -0.938628928
10080000 0.23982072 -0.94276672
10100000 0.22294432 -0.94688352
10120000 0.205825712 -0.950664768
10140000 0.18862608 -0.953969216
10160000 0.171520096 -0.957174784
10180000 0.15405768 -0.960066496
10200000 0.136755344 -0.962498624
10220000 0.119444152 -0.964734912
10240000 0.101898 -0.966653504
10260000 0.084418928 -0.968208
10280000 0.066827416 -0.96946752
10300000 0.049155672 -0.970328576
10320000 0.031591778 -0.970862976
10340000 0.013835995 -0.971158592
10360000 -0.003872265 -0.971081536
10380000 -0.021528456 -0.97056448
10400000 -0.039193004 -0.969885696
10420000 -0.05657692 -0.96927584
10440000 -0.074519624 -0.9674336
10460000 -0.092414568 -0.965785984
10480000 -0.110087808 -0.96370016
10500000 -0.12767208 -0.96135072
10520000 -0.14537808 -0.958661248
10540000 -0.1628688 -0.955540736
10560000 -0.180348576 -0.952167424
10580000 -0.19811072 -0.948506624
10600000 -0.214886224 -0.944651008
10620000 -0.232628304 -0.940148864
10640000 -0.250050928 -0.935360576
10660000 -0.267093328 -0.930260416
10680000 -0.284308512 -0.925052416
10700000 -0.301412896 -0.919254272
10720000 -0.318164544 -0.913225664
10740000 -0.3351872 -0.907038144
10760000 -0.351811264 -0.900213248
10780000 -0.36830304 -0.893290944
10800000 -0.384993152 -0.886034688
10820000 -0.401306784 -0.878308032
10840000 -0.417413728 -0.870636864
10860000 -0.433656192 -0.862292224
10880000 -0.449422336 -0.853642688
10900000 -0.465305984 -0.844956352
10920000 -0.480995296 -0.83573728
10940000 -0.496284352 -0.826262784
10960000 -0.511664864 -0.81668704
10980000 -0.52686096 -0.806451136
11000000 -0.541541056 -0.796133184
11020000 -0.556393152 -0.785660672
11040000 -0.570970176 -0.77461504
11060000 -0.585227776 -0.763563712
11080000 -0.599444096 -0.752066304
11100000 -0.613346752 -0.74018048
11120000 -0.626918592 -0.728319104
11140000 -0.640585344 -0.716107968
11160000 -0.653661824 -0.703405568
11180000 -0.666749184 -0.690747712
11200000 -0.679594368 -0.677605824
11220000 -0.691944896 -0.664307392
11240000 -0.704316992 -0.650948928
11260000 -0.716403392 -0.637069184
11280000 -0.727945344 -0.622983424
11300000 -0.739708672 -0.608979136
11320000 -0.750925632 -0.594331264
11340000 -0.761713152 -0.579745728
11360000 -0.772619328 -0.564928704
11380000 -0.782990336 -0.549712896
11400000 -0.793042752 -0.534507584
11420000 -0.803058304 -0.518982944
11440000 -0.812529024 -0.503201952
11460000 -0.821700992 -0.487493056
11480000 -0.830880576 -0.471378464
11500000 -0.839332736 -0.455116544
11520000 -0.847728384 -0.438925184
11540000 -0.855912384 -0.422106528
11560000 -0.86347648 -0.405458048
11580000 -0.870922944 -0.388700224
11600000 -0.87807264 -0.371586112
11620000 -0.884650176 -0.354452064
11640000 -0.891277312 -0.337257696
11660000 -0.89739584 -0.319685952
11680000 -0.903131136 -0.30232384
11700000 -0.908712768 -0.284604288
11720000 -0.913797504 -0.266731472
11740000 -0.918434304 -0.248998112
11760000 -0.923109056 -0.231017568
11780000 -0.927060032 -0.212864368
11800000 -0.930840384 -0.194899904
11820000 -0.93438048 -0.176581536
11840000 -0.937205504 -0.158214448
11860000 -0.940129408 -0.140000416
11880000 -0.942470336 -0.121423016
11900000 -0.944311872 -0.103023488
11920000 -0.94614816 -0.084559104
11940000 -0.947429312 -0.065909744
11960000 -0.948304064 -0.047451044
11980000 -0.94900288 -0.028815616
12000000 -0.949151552 -0.010033244
12020000 -0.948997248 0.008444352
12040000 -0.948640384 0.027248008
12060000 -0.947699648 0.045934916
12080000 -0.94644192 0.064533668
12100000 -0.944955776 0.083134552
12120000 -0.942956608 0.101767104
12140000 -0.940625984 0.120609952
12160000 -0.938010944 0.139100944
12180000 -0.934774336 0.15765824
12200000 -0.931515392 0.176116048
12220000 -0.927709568 0.194727216
12240000 -0.923436032 0.21298904
12260000 -0.91905216 0.231464992
12280000 -0.914076224 0.249796912
12300000 -0.908758656 0.267943056
12320000 -0.903259648 0.286212416
12340000 -0.89711744 0.304307552
12360000 -0.890695104 0.32222288
12380000 -0.88403872 0.340215872
12400000 -0.876739008 0.357993664
12420000 -0.869278912 0.375616736
12440000 -0.861310272 0.393251616
12460000 -0.85297728 0.410734848
12480000 -0.844327936 0.428094752
12500000 -0.835237632 0.445364224
12520000 -0.825711744 0.462428416
12540000 -0.815909376 0.479344448
12560000 -0.805582336 0.4961576
12580000 -0.794843968 0.512768672
12600000 -0.783880128 0.529336576
12620000 -0.772264192 0.545641344
12640000 -0.760426048 0.561759168
12660000 -0.748042176 0.57777344
12680000 -0.735194624 0.593569216
12700000 -0.722052224 0.609165184
12720000 -0.708341824 0.62460192
12740000 -0.694155904 0.63966784
12760000 -0.679608576 0.654631616
12780000 -0.66446624 0.66944128
12800000 -0.648838272 0.683774592
12820000 -0.63277792 0.69817728
12840000 -0.616075904 0.712152064
12860000 -0.59888 0.725695168
12880000 -0.581136704 0.739105024
12900000 -0.562750784 0.752323712
12920000 -0.54380928 0.764984384
12940000 -0.524190144 0.777476416
12960000 -0.50373984 0.789328192
12980000 -0.482747904 0.801033344
13000000 -0.46085664 0.812265792
13020000 -0.438499616 0.82316576
13040000 -0.41457024 0.83286208
13060000 -0.389728064 0.842544512
13080000 -0.364281664 0.85126528
13100000 -0.33753232 0.85945472
13120000 -0.309502944 0.866465088
13140000 -0.280221504 0.872681536
13160000 -0.249392832 0.877710016
13180000 -0.216956096 0.881262912
13200000 -0.18297064 0.883223424
13220000 -0.146963552 0.88321088
13240000 -0.108963504 0.880614592
13260000 -0.068959336 0.8752592
13280000 -0.026377384 0.866400192
13300000 0.018362268 0.852773888
13320000 0.065318972 0.833843648
13340000 0.114376184 0.807881024
13360000 0.164450832 0.77312832
13380000 0.214585312 0.728066176
13400000 0.262491024 0.669770048
13420000 0.304246272 0.596761344
13440000 0.33465264 0.507429184
13460000 0.346009056 0.40224304
13480000 0.32927104 0.286307488
13500000 0.277235136 0.169173664
13520000 0.186592144 0.066147888
13540000 0.064149572 -0.005600292
13560000 -0.07450068 -0.034587
13580000 -0.210003488 -0.019517924
13600000 -0.32640368 0.031654258
13620000 -0.415587808 0.10563624
13640000 -0.47643888 0.189765232
13660000 -0.512772672 0.274878528
13680000 -0.529640448 0.355572736
13700000 -0.532067008 0.428808032
13720000 -0.524347136 0.494165088
13740000 -0.509506336 0.551413504
13760000 -0.489903008 0.601454976
13780000 -0.467238112 0.645015424
13800000 -0.442498496 0.682847744
13820000 -0.41680272 0.715730496
13840000 -0.390390112 0.744569984
13860000 -0.363570496 0.76960032
13880000 -0.336996032 0.791604032
13900000 -0.310328192 0.810869312
13920000 -0.284057056 0.827540416
13940000 -0.258178528 0.84234016
13960000 -0.232491904 0.855267328
13980000 -0.207448176 0.866491392
14000000 -0.18270184 0.87634592
14020000 -0.158108496 0.884815232
14040000 -0.13421632 0.892041024
14060000 -0.110660392 0.898470912
14080000 -0.087289224 0.903613568
14100000 -0.06455306 0.908023232
14120000 -0.041941444 0.911709696
14140000 -0.019781164 0.9143488
14160000 0.001865411 0.916436736
14180000 0.023539792 0.917925632
14200000 0.044682508 0.918568384
14220000 0.065741392 0.918945344
14240000 0.086154808 0.918524608
14260000 0.106836848 0.917418624
14280000 0.126708824 0.916087488
14300000 0.14666456 0.914244864
14320000 0.166106544 0.911712704
14340000 0.185283248 0.908973248
14360000 0.204512064 0.905874944
14380000 0.22326232 0.901953792
14400000 0.241654464 0.898151168
14420000 0.26017568 0.89365984
14440000 0.278090944 0.888719552
14460000 0.2959192 0.883710848
14480000 0.313630144 0.878289024
14500000 0.330729216 0.87214624
14520000 0.347875072 0.866311936
14540000 0.364992288 0.859594624
14560000 0.3813912 0.852816576
14580000 0.398019872 0.845945152
14600000 0.4142064 0.838238208
14620000 0.429999488 0.830607744
14640000 0.445963264 0.822633856
14660000 0.461407296 0.814240704
14680000 0.476511136 0.805877184
14700000 0.491802848 0.797038272
14720000 0.506519328 0.787756352
14740000 0.521109824 0.778686528
14760000 0.53556704 0.769027776
14780000 0.549537472 0.759065856
14800000 0.563424192 0.749227328
14820000 0.577221312 0.738805056
14840000 0.590446336 0.728220032
14860000 0.603739328 0.717707648
14880000 0.616699264 0.706485632
14900000 0.629174144 0.69534624
14920000 0.641831104 0.68407872
14940000 0.654015232 0.672236352
14960000 0.665825216 0.66056256
14980000 0.677671296 0.648588736
15000000 0.689059904 0.636145024
15020000 0.700130496 0.623964992
15040000 0.711279872 0.611311104
15060000 0.7218528 0.598369728
15080000 0.732252992 0.585611712
15100000 0.742608064 0.572421056
15120000 0.752277824 0.559025856
15140000 0.761994432 0.545695232
15160000 0.77140352 0.53192096
15180000 0.780233792 0.518102048
15200000 0.789305408 0.50431472
15220000 0.797817344 0.48997936
15240000 0.805846656 0.475758624
15260000 0.814052672 0.461482368
15280000 0.821732352 0.44672848
15300000 0.828888448 0.432223616
15320000 0.836175872 0.417282112
15340000 0.842872768 0.402192544
15360000 0.849278656 0.387270336
15380000 0.85566496 0.37190256
15400000 0.861279424 0.356423104
15420000 0.866854208 0.341215392
15440000 0.872223808 0.325359456
15460000 0.87682464 0.30961472
15480000 0.88140096 0.293932032
15500000 0.885656448 0.277746656
15520000 0.889189184 0.261662864
15540000 0.892715584 0.245656304
15560000 0.89566688 0.229197216
15580000 0.89804608 0.21292712
15600000 0.90030048 0.196571456
15620000 0.901942528 0.179831888
15640000 0.903069056 0.163388752
15660000 0.903984576 0.146760176
15680000 0.903919168 0.1299032
15700000 0.903599424 0.113434616
15720000 0.902834048 0.0966682
15740000 0.901057792 0.079992424
15760000 0.898877824 0.063624664
15780000 0.896113664 0.04698632
15800000 0.892322432 0.03081002
15820000 0.888111936 0.014881394
15840000 0.883021888 -0.000935847
15860000 0.87682496 -0.016256238
15880000 0.870207872 -0.030927572
15900000 0.862524736 -0.045218316
15920000 0.853844544 -0.058429864
15940000 0.844678272 -0.070826392
15960000 0.834398016 -0.082110696
15980000 0.823631168 -0.09183992
16000000 0.810507776 -0.10138888
16020000 0.8014288 -0.106611312
16040000 0.78942272 -0.111104736
16060000 0.778637696 -0.113834888
16080000 0.768465216 -0.11434304
16100000 0.7598944 -0.112880424
16120000 0.753132416 -0.110027224
16140000 0.748507072 -0.105768144
16160000 0.746572416 -0.100851248
16180000 0.7472848 -0.0960796
16200000 0.750428288 -0.091788344
16220000 0.75611136 -0.088751752
16240000 0.76354912 -0.087506872
16260000 0.772367296 -0.08827304
16280000 0.781957248 -0.091069432
16300000 0.792339776 -0.095775728
16320000 0.802575616 -0.102830392
16340000 0.812252864 -0.11154816
16360000 0.821655488 -0.121833976
16380000 0.829960832 -0.133706776
16400000 0.837419904 -0.146470128
16420000 0.844075968 -0.16020576
16440000 0.849547456 -0.174772992
16460000 0.854026304 -0.189572432
16480000 0.857758272 -0.204878512
16500000 0.860720512 -0.220469744
16520000 0.862367296 -0.236250464
16540000 0.863478336 -0.252142912
16560000 0.863623168 -0.267890336
16580000 0.863578112 -0.28376256
16600000 0.862470592 -0.29911408
16620000 0.860923456 -0.31478272
16640000 0.858722432 -0.330097248
16660000 0.855943552 -0.345253984
16680000 0.852752896 -0.360152992
16700000 0.849394112 -0.374969376
16720000 0.845409472 -0.389714112
16740000 0.841198656 -0.404235104
16760000 0.836506688 -0.418262496
16780000 0.831547392 -0.43217664
16800000 0.82614496 -0.446081696
16820000 0.820507776 -0.459554528
16840000 0.814746496 -0.472903392
16860000 0.808485376 -0.486115104
16880000 0.802183488 -0.499007616
16900000 0.795559872 -0.511829248
16920000 0.788628032 -0.524316896
16940000 0.781576576 -0.536508992
16960000 0.774276608 -0.54871904
16980000 0.766770432 -0.560598208
17000000 0.759164992 -0.572303936
17020000 0.751299904 -0.583879104
17040000 0.743216192 -0.595026624
17060000 0.734983808 -0.606333376
17080000 0.72657408 -0.617058432
17100000 0.718037248 -0.628025856
17120000 0.709546496 -0.638356416
17140000 0.700528832 -0.64865632
17160000 0.691640128 -0.658895424
17180000 0.6823936 -0.668826432
17200000 0.67330016 -0.678614656
17220000 0.66389184 -0.688218944
17240000 0.654357376 -0.697534528
17260000 0.644769344 -0.706736832
17280000 0.635017472 -0.715758016
17300000 0.625131776 -0.724517248
17320000 0.615237376 -0.73324384
17340000 0.605003776 -0.741631488
17360000 0.59475136 -0.749787968
17380000 0.584538048 -0.757926336
17400000 0.574002368 -0.765743936
17420000 0.563459904 -0.773262976
17440000 0.552827392 -0.780801856
17460000 0.541956544 -0.788008512
17480000 0.531201056 -0.795014656
17500000 0.520195904 -0.801774848
17520000 0.509094176 -0.808335488
17540000 0.4978936 -0.814721216
17560000 0.486584512 -0.8209312
17580000 0.475103456 -0.82666592
17600000 0.463674144 -0.832189888
17620000 0.451988032 -0.8375072
17640000 0.440328128 -0.842588096
17660000 0.4285816 -0.8473232
17680000 0.416537856 -0.851621056
17700000 0.404601984 -0.855532544
17720000 0.392672608 -0.859281344
17740000 0.38053344 -0.862377792
17760000 0.368452608 -0.86500256
17780000 0.356402816 -0.867152448
17800000 0.344422944 -0.868562432
17820000 0.3327104 -0.869462784
17840000 0.321251232 -0.869604032
17860000 0.310413216 -0.868958912
17880000 0.300261664 -0.867723712
17900000 0.291033568 -0.86584512
17920000 0.283343648 -0.8634512
17940000 0.276863168 -0.861208
17960000 0.27210544 -0.859166208
17980000 0.268927296 -0.858150336
18000000 0.267057152 -0.859001472